NAME: random-73-8738
TYPE: TSP
COMMENT: size=73 seed=8738
DIMENSION: 148
EDGE_WEIGHT_TYPE: EUC_2D
NODE_COORD_SECTION
+0 566 359
-0 566 359
+1 555 25
-1 555 607
+2 229 193
-2 623 684
+3 876 602
-3 257 898
+4 318 653
-4 470 808
+5 5 75
-5 780 756
+6 9 766
-6 521 853
+7 363 61
-7 348 568
+8 285 188
-8 923 558
+9 533 939
-9 929 674
+10 420 441
-10 876 414
+11 206 965
-11 471 848
+12 18 455
-12 779 336
+13 685 578
-13 51 882
+14 115 227
-14 372 151
+15 948 532
-15 545 523
+16 351 62
-16 751 680
+17 457 886
-17 299 646
+18 243 946
-18 54 206
+19 860 829
-19 512 412
+20 119 907
-20 916 33
+21 404 410
-21 339 466
+22 587 616
-22 805 402
+23 341 768
-23 221 84
+24 208 315
-24 853 309
+25 720 50
-25 475 38
+26 185 439
-26 509 650
+27 482 467
-27 933 392
+28 95 549
-28 657 945
+29 584 689
-29 869 123
+30 515 913
-30 550 764
+31 112 690
-31 229 28
+32 168 178
-32 946 411
+33 5 185
-33 9 509
+34 108 473
-34 88 902
+35 488 122
-35 871 848
+36 584 583
-36 687 510
+37 889 32
-37 398 818
+38 763 407
-38 569 368
+39 53 450
-39 33 989
+40 19 967
-40 547 188
+41 835 306
-41 638 592
+42 595 597
-42 326 286
+43 59 845
-43 732 196
+44 383 882
-44 353 120
+45 192 202
-45 740 202
+46 268 770
-46 162 656
+47 79 226
-47 573 997
+48 268 749
-48 462 859
+49 485 502
-49 916 894
+50 132 365
-50 309 915
+51 310 854
-51 46 89
+52 481 787
-52 881 313
+53 135 708
-53 591 27
+54 892 295
-54 411 848
+55 156 795
-55 254 545
+56 295 998
-56 414 805
+57 607 315
-57 334 208
+58 181 440
-58 245 967
+59 65 711
-59 8 963
+60 646 16
-60 995 372
+61 764 820
-61 578 430
+62 439 183
-62 637 315
+63 525 101
-63 602 12
+64 753 416
-64 807 56
+65 704 23
-65 220 882
+66 877 427
-66 256 225
+67 830 351
-67 553 937
+68 918 184
-68 176 379
+69 388 249
-69 823 845
+70 270 650
-70 480 809
+71 548 364
-71 800 704
+72 567 247
-72 256 636
+73 210 645
-73 359 430
PRECEDENCE_SECTION
+0 -0
+1 -1
+2 -2
+3 -3
+4 -4
+5 -5
+6 -6
+7 -7
+8 -8
+9 -9
+10 -10
+11 -11
+12 -12
+13 -13
+14 -14
+15 -15
+16 -16
+17 -17
+18 -18
+19 -19
+20 -20
+21 -21
+22 -22
+23 -23
+24 -24
+25 -25
+26 -26
+27 -27
+28 -28
+29 -29
+30 -30
+31 -31
+32 -32
+33 -33
+34 -34
+35 -35
+36 -36
+37 -37
+38 -38
+39 -39
+40 -40
+41 -41
+42 -42
+43 -43
+44 -44
+45 -45
+46 -46
+47 -47
+48 -48
+49 -49
+50 -50
+51 -51
+52 -52
+53 -53
+54 -54
+55 -55
+56 -56
+57 -57
+58 -58
+59 -59
+60 -60
+61 -61
+62 -62
+63 -63
+64 -64
+65 -65
+66 -66
+67 -67
+68 -68
+69 -69
+70 -70
+71 -71
+72 -72
+73 -73
EOF
